DIMENSION :4
NODE_COORD_SECTION
1 -65.61099504845521 -50.970317488039775
2 -62.058300109528815 -77.22043688012872
3 -33.928452301671655 -28.366368288405823
4 3.9542942477428085 -51.593565905349315
EOF
